param u:=
    1	250
    2	280
    3	500
    4	360
;
param P:=
    1	16
    2	20
    3	14
;
param V:=
    1	200
    2	250
    3	150
;
param C:=
    1	20
    2	15
    3	8
    4	10
;
param Vol:=
    1	1
    2	2
    3	10
    4	6
;
